(set-logic LIA)
(synth-fun findSum ( (y1 Int) (y2 Int) (y3 Int) )Int ((Start Int ( 0 1 2 3 y1 y2 y3 z (+ Start Start)  (let ((z Int Start)) Start)  (ite BoolExpr Start Start))) (BoolExpr Bool ((< Start Start) (<= Start Start) (> Start Start) (>= Start Start)))))
(declare-var x1 Int)
(declare-var x2 Int)
(declare-var x3 Int)
(constraint (=> (> (+ x1 x2) 15) (= (findSum x1 x2 x3 ) (+ x1 x2))))
(constraint (=> (and (<= (+ x1 x2) 15) (> (+ x2 x3) 15)) (= (findSum x1 x2 x3 ) (+ x2 x3))))
(constraint (=> (and (<= (+ x1 x2) 15) (<= (+ x2 x3) 15)) (= (findSum x1 x2 x3 ) 0)))
(check-synth)
